(set-logic ALL)
(declare-const labels String)
(assert (< 0 (str.len labels)))
(assert (not (str.contains (str.at labels 0) ".")))
(assert (not (= (str.at labels 0) "django.contrib.admin")))
(assert (not (= (str.at labels 0) "django.contrib.auth")))
(assert (not (= (str.at labels 0) "django.contrib.contenttypes")))
(assert (not (= (str.at labels 0) "django.contrib.sessions")))
(assert (not (= (str.at labels 0) "django.contrib.messages")))
(assert (not (= (str.at labels 0) "django.contrib.staticfiles")))
(assert (not (= (str.at labels 0) "django.contrib.sites")))
(assert (not (= (str.at labels 0) "django.contrib.flatpages")))
(assert (not (= (str.at labels 0) "django.contrib.redirects")))
(assert (not (= (str.at labels 0) "tests.absolute_url_overrides")))
(assert (not (= (str.at labels 0) "tests.admin_autodiscover")))
(assert (not (= (str.at labels 0) "tests.admin_changelist")))
(assert (not (= (str.at labels 0) "tests.admin_checks")))
(assert (not (= (str.at labels 0) "tests.admin_custom_urls")))
(assert (not (= (str.at labels 0) "tests.admin_default_site")))
(assert (not (= (str.at labels 0) "tests.admin_docs")))
(assert (not (= (str.at labels 0) "tests.admin_filters")))
(assert (not (= (str.at labels 0) "tests.admin_inlines")))
(assert (not (= (str.at labels 0) "tests.admin_ordering")))
(assert (not (= (str.at labels 0) "tests.admin_registration")))
(assert (not (= (str.at labels 0) "tests.admin_scripts")))
(assert (not (= (str.at labels 0) "tests.admin_utils")))
(assert (not (= (str.at labels 0) "tests.admin_views")))
(assert (not (= (str.at labels 0) "tests.admin_widgets")))
(assert (not (= (str.at labels 0) "tests.aggregation")))
(assert (not (= (str.at labels 0) "tests.aggregation_regress")))
(assert (not (= (str.at labels 0) "tests.annotations")))
(assert (not (= (str.at labels 0) "tests.app_loading")))
(assert (not (= (str.at labels 0) "tests.apps")))
(assert (not (= (str.at labels 0) "tests.asgi")))
(assert (not (= (str.at labels 0) "tests.async")))
(assert (not (= (str.at labels 0) "tests.auth_tests")))
(assert (not (= (str.at labels 0) "tests.backends")))
(assert (not (= (str.at labels 0) "tests.base")))
(assert (not (= (str.at labels 0) "tests.bash_completion")))
(assert (not (= (str.at labels 0) "tests.basic")))
(assert (not (= (str.at labels 0) "tests.builtin_server")))
(assert (not (= (str.at labels 0) "tests.bulk_create")))
(assert (not (= (str.at labels 0) "tests.cache")))
(assert (not (= (str.at labels 0) "tests.check_framework")))
(assert (not (= (str.at labels 0) "tests.conditional_processing")))
(assert (not (= (str.at labels 0) "tests.constraints")))
(assert (not (= (str.at labels 0) "tests.contenttypes_tests")))
(assert (not (= (str.at labels 0) "tests.context_processors")))
(assert (not (= (str.at labels 0) "tests.csrf_tests")))
(assert (not (= (str.at labels 0) "tests.custom_columns")))
(assert (not (= (str.at labels 0) "tests.custom_lookups")))
(assert (not (= (str.at labels 0) "tests.custom_managers")))
(assert (not (= (str.at labels 0) "tests.custom_methods")))
(assert (not (= (str.at labels 0) "tests.custom_migration_operations")))
(assert (not (= (str.at labels 0) "tests.custom_pk")))
(assert (not (= (str.at labels 0) "tests.datatypes")))
(assert (not (= (str.at labels 0) "tests.dates")))
(assert (= (str.at labels 0) "tests.datetimes"))
(check-sat)
(get-value (labels))
